c turning on binary mode checking
c parsing input formula with 259840 variables and 1039934 clauses
c finished parsing, read 2988101 bytes from proof file
c detected empty clause; start verification via backward checking
c 3157 of 1039934 clauses in core                            
c 979 of 116418 lemmas in core using 24212 resolution steps
c 0 RAT lemmas in core; 190 redundant literals in core lemmas
s VERIFIED
c verification time: 1.809 seconds
